Problem:    finestre
Rows:       50
Columns:    25 (20 integer, 20 binary)
Non-zeros:  110
Status:     INTEGER OPTIMAL
Objective:  z = 380 (MINimum)

   No.   Row name        Activity     Lower bound   Upper bound
------ ------------    ------------- ------------- -------------
     1 Finestre[1]                 1             1             = 
     2 Finestre[2]                 1             1             = 
     3 Finestre[3]                 1             1             = 
     4 Finestre[4]                 1             1             = 
     5 Finestre[5]                 1             1             = 
     6 Partenza[1,1]
                               -9828        -10000               
     7 Partenza[1,2]
                                 172         -9540               
     8 Partenza[1,3]
                                 172        -10000               
     9 Partenza[1,4]
                                 172        -10000               
    10 Partenza[2,1]
                                 220         -9932               
    11 Partenza[2,2]
                                 220         -9852               
    12 Partenza[2,3]
                               -9780         -9800               
    13 Partenza[2,4]
                                 220        -10000               
    14 Partenza[3,1]
                                 340         -9800               
    15 Partenza[3,2]
                                 340         -9736               
    16 Partenza[3,3]
                               -9660         -9680               
    17 Partenza[3,4]
                                 340        -10000               
    18 Partenza[4,1]
                                 412         -9785               
    19 Partenza[4,2]
                                 412         -9736               
    20 Partenza[4,3]
                                 412         -9668               
    21 Partenza[4,4]
                               -9588         -9588               
    22 Partenza[5,1]
                                 500         -9688               
    23 Partenza[5,2]
                                 500         -9600               
    24 Partenza[5,3]
                               -9500         -9536               
    25 Partenza[5,4]
                                 500        -10000               
    26 Fine[1,1]               10172                       10200 
    27 Fine[1,2]                 172                       10560 
    28 Fine[1,3]                 172                       10000 
    29 Fine[1,4]                 172                       10000 
    30 Fine[2,1]                 220                       10112 
    31 Fine[2,2]                 220                       10176 
    32 Fine[2,3]               10220                       10220 
    33 Fine[2,4]                 220                       10000 
    34 Fine[3,1]                 340                       10244 
    35 Fine[3,2]                 340                       10276 
    36 Fine[3,3]               10340                       10344 
    37 Fine[3,4]                 340                       10000 
    38 Fine[4,1]                 412                       10235 
    39 Fine[4,2]                 412                       10296 
    40 Fine[4,3]                 412                       10368 
    41 Fine[4,4]               10412                       10420 
    42 Fine[5,1]                 500                       10344 
    43 Fine[5,2]                 500                       10416 
    44 Fine[5,3]               10500                       10504 
    45 Fine[5,4]                 500                       10000 
    46 vincoloIntervalli[1]
                                  48            48               
    47 vincoloIntervalli[2]
                                 120            80               
    48 vincoloIntervalli[3]
                                  72            72               
    49 vincoloIntervalli[4]
                                  88            88               
    50 z                         328                             

   No. Column name       Activity     Lower bound   Upper bound
------ ------------    ------------- ------------- -------------
     1 x[1]                      172                             
     2 x[2]                      220                             
     3 x[3]                      340                             
     4 x[4]                      412                             
     5 x[5]                      500                             
     6 y[1,1]       *              1             0             1 
     7 y[1,2]       *              0             0             1 
     8 y[1,3]       *              0             0             1 
     9 y[1,4]       *              0             0             1 
    10 y[2,1]       *              0             0             1 
    11 y[2,2]       *              0             0             1 
    12 y[2,3]       *              1             0             1 
    13 y[2,4]       *              0             0             1 
    14 y[3,1]       *              0             0             1 
    15 y[3,2]       *              0             0             1 
    16 y[3,3]       *              1             0             1 
    17 y[3,4]       *              0             0             1 
    18 y[4,1]       *              0             0             1 
    19 y[4,2]       *              0             0             1 
    20 y[4,3]       *              0             0             1 
    21 y[4,4]       *              1             0             1 
    22 y[5,1]       *              0             0             1 
    23 y[5,2]       *              0             0             1 
    24 y[5,3]       *              1             0             1 
    25 y[5,4]       *              0             0             1 

Integer feasibility conditions:

KKT.PE: max.abs.err = 0.00e+00 on row 0
        max.rel.err = 0.00e+00 on row 0
        High quality

KKT.PB: max.abs.err = 0.00e+00 on row 0
        max.rel.err = 0.00e+00 on row 0
        High quality

End of output
